p cnf 264 384
47 48 1 73 0
47 48 1 -73 0
-47 -48 1 74 0
-47 -48 1 -74 0
47 -48 -1 75 0
47 -48 -1 -75 0
-47 48 -1 76 0
-47 48 -1 -76 0
1 49 2 77 0
1 49 2 -77 0
-1 -49 2 78 0
-1 -49 2 -78 0
1 -49 -2 79 0
1 -49 -2 -79 0
-1 49 -2 80 0
-1 49 -2 -80 0
2 50 3 81 0
2 50 3 -81 0
-2 -50 3 82 0
-2 -50 3 -82 0
2 -50 -3 83 0
2 -50 -3 -83 0
-2 50 -3 84 0
-2 50 -3 -84 0
3 51 4 85 0
3 51 4 -85 0
-3 -51 4 86 0
-3 -51 4 -86 0
3 -51 -4 87 0
3 -51 -4 -87 0
-3 51 -4 88 0
-3 51 -4 -88 0
4 52 5 89 0
4 52 5 -89 0
-4 -52 5 90 0
-4 -52 5 -90 0
4 -52 -5 91 0
4 -52 -5 -91 0
-4 52 -5 92 0
-4 52 -5 -92 0
5 53 6 93 0
5 53 6 -93 0
-5 -53 6 94 0
-5 -53 6 -94 0
5 -53 -6 95 0
5 -53 -6 -95 0
-5 53 -6 96 0
-5 53 -6 -96 0
6 54 7 97 0
6 54 7 -97 0
-6 -54 7 98 0
-6 -54 7 -98 0
6 -54 -7 99 0
6 -54 -7 -99 0
-6 54 -7 100 0
-6 54 -7 -100 0
7 55 8 101 0
7 55 8 -101 0
-7 -55 8 102 0
-7 -55 8 -102 0
7 -55 -8 103 0
7 -55 -8 -103 0
-7 55 -8 104 0
-7 55 -8 -104 0
8 56 9 105 0
8 56 9 -105 0
-8 -56 9 106 0
-8 -56 9 -106 0
8 -56 -9 107 0
8 -56 -9 -107 0
-8 56 -9 108 0
-8 56 -9 -108 0
9 57 10 109 0
9 57 10 -109 0
-9 -57 10 110 0
-9 -57 10 -110 0
9 -57 -10 111 0
9 -57 -10 -111 0
-9 57 -10 112 0
-9 57 -10 -112 0
10 58 11 113 0
10 58 11 -113 0
-10 -58 11 114 0
-10 -58 11 -114 0
10 -58 -11 115 0
10 -58 -11 -115 0
-10 58 -11 116 0
-10 58 -11 -116 0
11 59 12 117 0
11 59 12 -117 0
-11 -59 12 118 0
-11 -59 12 -118 0
11 -59 -12 119 0
11 -59 -12 -119 0
-11 59 -12 120 0
-11 59 -12 -120 0
12 60 13 121 0
12 60 13 -121 0
-12 -60 13 122 0
-12 -60 13 -122 0
12 -60 -13 123 0
12 -60 -13 -123 0
-12 60 -13 124 0
-12 60 -13 -124 0
13 61 14 125 0
13 61 14 -125 0
-13 -61 14 126 0
-13 -61 14 -126 0
13 -61 -14 127 0
13 -61 -14 -127 0
-13 61 -14 128 0
-13 61 -14 -128 0
14 62 15 129 0
14 62 15 -129 0
-14 -62 15 130 0
-14 -62 15 -130 0
14 -62 -15 131 0
14 -62 -15 -131 0
-14 62 -15 132 0
-14 62 -15 -132 0
15 63 16 133 0
15 63 16 -133 0
-15 -63 16 134 0
-15 -63 16 -134 0
15 -63 -16 135 0
15 -63 -16 -135 0
-15 63 -16 136 0
-15 63 -16 -136 0
16 64 17 137 0
16 64 17 -137 0
-16 -64 17 138 0
-16 -64 17 -138 0
16 -64 -17 139 0
16 -64 -17 -139 0
-16 64 -17 140 0
-16 64 -17 -140 0
17 65 18 141 0
17 65 18 -141 0
-17 -65 18 142 0
-17 -65 18 -142 0
17 -65 -18 143 0
17 -65 -18 -143 0
-17 65 -18 144 0
-17 65 -18 -144 0
18 66 19 145 0
18 66 19 -145 0
-18 -66 19 146 0
-18 -66 19 -146 0
18 -66 -19 147 0
18 -66 -19 -147 0
-18 66 -19 148 0
-18 66 -19 -148 0
19 67 20 149 0
19 67 20 -149 0
-19 -67 20 150 0
-19 -67 20 -150 0
19 -67 -20 151 0
19 -67 -20 -151 0
-19 67 -20 152 0
-19 67 -20 -152 0
20 68 21 153 0
20 68 21 -153 0
-20 -68 21 154 0
-20 -68 21 -154 0
20 -68 -21 155 0
20 -68 -21 -155 0
-20 68 -21 156 0
-20 68 -21 -156 0
21 69 22 157 0
21 69 22 -157 0
-21 -69 22 158 0
-21 -69 22 -158 0
21 -69 -22 159 0
21 -69 -22 -159 0
-21 69 -22 160 0
-21 69 -22 -160 0
22 70 23 161 0
22 70 23 -161 0
-22 -70 23 162 0
-22 -70 23 -162 0
22 -70 -23 163 0
22 -70 -23 -163 0
-22 70 -23 164 0
-22 70 -23 -164 0
23 71 72 165 0
23 71 72 -165 0
-23 -71 72 166 0
-23 -71 72 -166 0
23 -71 -72 167 0
23 -71 -72 -167 0
-23 71 -72 168 0
-23 71 -72 -168 0
24 71 72 169 0
24 71 72 -169 0
-24 -71 72 170 0
-24 -71 72 -170 0
24 -71 -72 171 0
24 -71 -72 -171 0
-24 71 -72 172 0
-24 71 -72 -172 0
25 70 24 173 0
25 70 24 -173 0
-25 -70 24 174 0
-25 -70 24 -174 0
25 -70 -24 175 0
25 -70 -24 -175 0
-25 70 -24 176 0
-25 70 -24 -176 0
26 69 25 177 0
26 69 25 -177 0
-26 -69 25 178 0
-26 -69 25 -178 0
26 -69 -25 179 0
26 -69 -25 -179 0
-26 69 -25 180 0
-26 69 -25 -180 0
27 68 26 181 0
27 68 26 -181 0
-27 -68 26 182 0
-27 -68 26 -182 0
27 -68 -26 183 0
27 -68 -26 -183 0
-27 68 -26 184 0
-27 68 -26 -184 0
28 67 27 185 0
28 67 27 -185 0
-28 -67 27 186 0
-28 -67 27 -186 0
28 -67 -27 187 0
28 -67 -27 -187 0
-28 67 -27 188 0
-28 67 -27 -188 0
29 66 28 189 0
29 66 28 -189 0
-29 -66 28 190 0
-29 -66 28 -190 0
29 -66 -28 191 0
29 -66 -28 -191 0
-29 66 -28 192 0
-29 66 -28 -192 0
30 65 29 193 0
30 65 29 -193 0
-30 -65 29 194 0
-30 -65 29 -194 0
30 -65 -29 195 0
30 -65 -29 -195 0
-30 65 -29 196 0
-30 65 -29 -196 0
31 64 30 197 0
31 64 30 -197 0
-31 -64 30 198 0
-31 -64 30 -198 0
31 -64 -30 199 0
31 -64 -30 -199 0
-31 64 -30 200 0
-31 64 -30 -200 0
32 63 31 201 0
32 63 31 -201 0
-32 -63 31 202 0
-32 -63 31 -202 0
32 -63 -31 203 0
32 -63 -31 -203 0
-32 63 -31 204 0
-32 63 -31 -204 0
33 62 32 205 0
33 62 32 -205 0
-33 -62 32 206 0
-33 -62 32 -206 0
33 -62 -32 207 0
33 -62 -32 -207 0
-33 62 -32 208 0
-33 62 -32 -208 0
34 61 33 209 0
34 61 33 -209 0
-34 -61 33 210 0
-34 -61 33 -210 0
34 -61 -33 211 0
34 -61 -33 -211 0
-34 61 -33 212 0
-34 61 -33 -212 0
35 60 34 213 0
35 60 34 -213 0
-35 -60 34 214 0
-35 -60 34 -214 0
35 -60 -34 215 0
35 -60 -34 -215 0
-35 60 -34 216 0
-35 60 -34 -216 0
36 59 35 217 0
36 59 35 -217 0
-36 -59 35 218 0
-36 -59 35 -218 0
36 -59 -35 219 0
36 -59 -35 -219 0
-36 59 -35 220 0
-36 59 -35 -220 0
37 58 36 221 0
37 58 36 -221 0
-37 -58 36 222 0
-37 -58 36 -222 0
37 -58 -36 223 0
37 -58 -36 -223 0
-37 58 -36 224 0
-37 58 -36 -224 0
38 57 37 225 0
38 57 37 -225 0
-38 -57 37 226 0
-38 -57 37 -226 0
38 -57 -37 227 0
38 -57 -37 -227 0
-38 57 -37 228 0
-38 57 -37 -228 0
39 56 38 229 0
39 56 38 -229 0
-39 -56 38 230 0
-39 -56 38 -230 0
39 -56 -38 231 0
39 -56 -38 -231 0
-39 56 -38 232 0
-39 56 -38 -232 0
40 55 39 233 0
40 55 39 -233 0
-40 -55 39 234 0
-40 -55 39 -234 0
40 -55 -39 235 0
40 -55 -39 -235 0
-40 55 -39 236 0
-40 55 -39 -236 0
41 54 40 237 0
41 54 40 -237 0
-41 -54 40 238 0
-41 -54 40 -238 0
41 -54 -40 239 0
41 -54 -40 -239 0
-41 54 -40 240 0
-41 54 -40 -240 0
42 53 41 241 0
42 53 41 -241 0
-42 -53 41 242 0
-42 -53 41 -242 0
42 -53 -41 243 0
42 -53 -41 -243 0
-42 53 -41 244 0
-42 53 -41 -244 0
43 52 42 245 0
43 52 42 -245 0
-43 -52 42 246 0
-43 -52 42 -246 0
43 -52 -42 247 0
43 -52 -42 -247 0
-43 52 -42 248 0
-43 52 -42 -248 0
44 51 43 249 0
44 51 43 -249 0
-44 -51 43 250 0
-44 -51 43 -250 0
44 -51 -43 251 0
44 -51 -43 -251 0
-44 51 -43 252 0
-44 51 -43 -252 0
45 50 44 253 0
45 50 44 -253 0
-45 -50 44 254 0
-45 -50 44 -254 0
45 -50 -44 255 0
45 -50 -44 -255 0
-45 50 -44 256 0
-45 50 -44 -256 0
46 49 45 257 0
46 49 45 -257 0
-46 -49 45 258 0
-46 -49 45 -258 0
46 -49 -45 259 0
46 -49 -45 -259 0
-46 49 -45 260 0
-46 49 -45 -260 0
47 48 -46 261 0
47 48 -46 -261 0
-47 -48 -46 262 0
-47 -48 -46 -262 0
47 -48 46 263 0
47 -48 46 -263 0
-47 48 46 264 0
-47 48 46 -264 0
